(set-info :smt-lib-version 2.6)
(set-info :category "crafted")
(set-logic QF_FFA)
(define-sort FF0 () (_ FiniteField 52435875175126190479447740508185965837690552500527637822603658699938581184513))
(declare-fun mul_n17_alt () FF0)
(declare-fun c_n4_alt () FF0)
(declare-fun mul_n16_alt () FF0)
(declare-fun h_n5_alt () FF0)
(declare-fun mul_n15_alt () FF0)
(declare-fun g_n7_alt () FF0)
(declare-fun mul_n14_alt () FF0)
(declare-fun a_n8_alt () FF0)
(declare-fun mul_n13_alt () FF0)
(declare-fun mul_n9_alt () FF0)
(declare-fun b_n6_alt () FF0)
(declare-fun mul_n12_alt () FF0)
(declare-fun mul_n11_alt () FF0)
(declare-fun mul_n10_alt () FF0)
(declare-fun f_n1_alt () FF0)
(declare-fun d_n3_alt () FF0)
(declare-fun e_n2_alt () FF0)
(declare-fun mul_n17 () FF0)
(declare-fun c_n4 () FF0)
(declare-fun mul_n16 () FF0)
(declare-fun h_n5 () FF0)
(declare-fun mul_n15 () FF0)
(declare-fun g_n7 () FF0)
(declare-fun mul_n14 () FF0)
(declare-fun a_n8 () FF0)
(declare-fun mul_n13 () FF0)
(declare-fun mul_n9 () FF0)
(declare-fun b_n6 () FF0)
(declare-fun mul_n12 () FF0)
(declare-fun mul_n11 () FF0)
(declare-fun mul_n10 () FF0)
(declare-fun f_n1 () FF0)
(declare-fun d_n3 () FF0)
(declare-fun e_n2 () FF0)
(declare-fun return_n0_alt () FF0)
(declare-fun return_n0 () FF0)
(assert 
  (let ((let0 mul_n17_alt))
  (let ((let1 c_n4_alt))
  (let ((let2 mul_n16_alt))
  (let ((let3 (ff.mul let2 let1)))
  (let ((let4 (= let3 let0)))
  (let ((let5 h_n5_alt))
  (let ((let6 mul_n15_alt))
  (let ((let7 (ff.mul let6 let5)))
  (let ((let8 (= let7 let2)))
  (let ((let9 (as ff1 FF0)))
  (let ((let10 (as ff52435875175126190479447740508185965837690552500527637822603658699938581184512 FF0)))
  (let ((let11 g_n7_alt))
  (let ((let12 (ff.mul let11 let10)))
  (let ((let13 (ff.add let12 let9)))
  (let ((let14 mul_n14_alt))
  (let ((let15 (ff.mul let14 let13)))
  (let ((let16 (= let15 let6)))
  (let ((let17 a_n8_alt))
  (let ((let18 mul_n13_alt))
  (let ((let19 (ff.mul let18 let17)))
  (let ((let20 (= let19 let14)))
  (let ((let21 mul_n9_alt))
  (let ((let22 (ff.mul let21 let10)))
  (let ((let23 (ff.add let22 let9)))
  (let ((let24 b_n6_alt))
  (let ((let25 (ff.mul let24 let23)))
  (let ((let26 (= let25 let18)))
  (let ((let27 mul_n12_alt))
  (let ((let28 mul_n11_alt))
  (let ((let29 (ff.add let5 let28)))
  (let ((let30 (ff.mul let29 let23)))
  (let ((let31 (= let30 let27)))
  (let ((let32 (ff.mul let5 let10)))
  (let ((let33 mul_n10_alt))
  (let ((let34 f_n1_alt))
  (let ((let35 (ff.add let34 let33 let32)))
  (let ((let36 d_n3_alt))
  (let ((let37 (ff.mul let36 let35)))
  (let ((let38 (= let37 let28)))
  (let ((let39 e_n2_alt))
  (let ((let40 (ff.mul let34 let10)))
  (let ((let41 (ff.add let40 let39)))
  (let ((let42 (ff.mul let1 let41)))
  (let ((let43 (= let42 let33)))
  (let ((let44 (ff.mul let36 let10)))
  (let ((let45 (ff.add let44 let9)))
  (let ((let46 (ff.mul let24 let10)))
  (let ((let47 (ff.add let46 let9)))
  (let ((let48 (ff.mul let47 let45)))
  (let ((let49 (= let48 let21)))
  (let ((let50 (and let49 let43 let38 let31 let26 let20 let16 let8 let4)))
  (let ((let51 mul_n17))
  (let ((let52 c_n4))
  (let ((let53 mul_n16))
  (let ((let54 (ff.mul let53 let52)))
  (let ((let55 (= let54 let51)))
  (let ((let56 h_n5))
  (let ((let57 mul_n15))
  (let ((let58 (ff.mul let57 let56)))
  (let ((let59 (= let58 let53)))
  (let ((let60 g_n7))
  (let ((let61 (ff.mul let60 let10)))
  (let ((let62 (ff.add let61 let9)))
  (let ((let63 mul_n14))
  (let ((let64 (ff.mul let63 let62)))
  (let ((let65 (= let64 let57)))
  (let ((let66 a_n8))
  (let ((let67 mul_n13))
  (let ((let68 (ff.mul let67 let66)))
  (let ((let69 (= let68 let63)))
  (let ((let70 mul_n9))
  (let ((let71 (ff.mul let70 let10)))
  (let ((let72 (ff.add let71 let9)))
  (let ((let73 b_n6))
  (let ((let74 (ff.mul let73 let72)))
  (let ((let75 (= let74 let67)))
  (let ((let76 mul_n12))
  (let ((let77 mul_n11))
  (let ((let78 (ff.add let56 let77)))
  (let ((let79 (ff.mul let78 let72)))
  (let ((let80 (= let79 let76)))
  (let ((let81 (ff.mul let56 let10)))
  (let ((let82 mul_n10))
  (let ((let83 f_n1))
  (let ((let84 (ff.add let83 let82 let81)))
  (let ((let85 d_n3))
  (let ((let86 (ff.mul let85 let84)))
  (let ((let87 (= let86 let77)))
  (let ((let88 e_n2))
  (let ((let89 (ff.mul let83 let10)))
  (let ((let90 (ff.add let89 let88)))
  (let ((let91 (ff.mul let52 let90)))
  (let ((let92 (= let91 let82)))
  (let ((let93 (ff.mul let85 let10)))
  (let ((let94 (ff.add let93 let9)))
  (let ((let95 (ff.mul let73 let10)))
  (let ((let96 (ff.add let95 let9)))
  (let ((let97 (ff.mul let96 let94)))
  (let ((let98 (= let97 let70)))
  (let ((let99 (and let98 let92 let87 let80 let75 let69 let65 let59 let55)))
  (let ((let100 return_n0_alt))
  (let ((let101 return_n0))
  (let ((let102 (= let101 let100)))
  (let ((let103 (not let102)))
  (let ((let104 (= let52 let1)))
  (let ((let105 (= let88 let39)))
  (let ((let106 (= let56 let5)))
  (let ((let107 (= let83 let34)))
  (let ((let108 (= let66 let17)))
  (let ((let109 (= let60 let11)))
  (let ((let110 (= let73 let24)))
  (let ((let111 (= let85 let36)))
  (let ((let112 (and let111 let110 let109 let108 let107 let106 let105 let104)))
  (let ((let113 (and let112 let103 let99 let50)))
  let113
))))))))))))))))))))))))))))))))))))))))))))))))))))))))))))))))))))))))))))))))))))))))))))))))))))))))))))))))))
)
(check-sat)
